Version identifier: 22.1.1.0 | 2022-11-28 | 9160aff4d
CPXPARAM_Read_DataCheck                          1
CPXPARAM_MIP_Cuts_Covers                         1
CPXPARAM_MIP_Cuts_FlowCovers                     1
CPXPARAM_MIP_Cuts_MIRCut                         1
CPXPARAM_TimeLimit                               388
Tried aggregator 2 times.
MIP Presolve eliminated 132 rows and 853 columns.
MIP Presolve added 6 rows and 0 columns.
MIP Presolve modified 31823 coefficients.
Aggregator did 3 substitutions.
Reduced MIP has 5852 rows, 8059 columns, and 42410 nonzeros.
Reduced MIP has 7985 binaries, 0 generals, 0 SOSs, and 0 indicators.
Presolve time = 0.04 sec. (56.90 ticks)
Found incumbent of value 15826.000000 after 0.07 sec. (96.33 ticks)
Probing time = 0.02 sec. (6.91 ticks)
Tried aggregator 1 time.
Detecting symmetries...
Reduced MIP has 5852 rows, 8059 columns, and 42410 nonzeros.
Reduced MIP has 7985 binaries, 0 generals, 0 SOSs, and 0 indicators.
Presolve time = 0.02 sec. (23.61 ticks)
Probing time = 0.03 sec. (6.93 ticks)
Clique table members: 6689.
MIP emphasis: balance optimality and feasibility.
MIP search method: dynamic search.
Parallel mode: deterministic, using up to 12 threads.
Root relaxation solution time = 0.15 sec. (70.17 ticks)

        Nodes                                         Cuts/
   Node  Left     Objective  IInf  Best Integer    Best Bound    ItCnt     Gap

*     0+    0                        15826.0000        0.0000           100.00%
*     0+    0                        15661.0000        0.0000           100.00%
      0     0      808.3605   126    15661.0000      808.3605     1254   94.84%
      0     0      911.2045   104    15661.0000     Cuts: 251     1606   94.18%
*     0+    0                         3379.0000      911.2045            73.03%
      0     0      934.0250    97     3379.0000      Cuts: 93     1763   72.36%
      0     0      934.1200    76     3379.0000      Cuts: 94     1806   72.36%
*     0+    0                         2963.0000      934.1200            68.47%
*     0+    0                         1174.0000      934.1200            20.43%
      0     0  -1.00000e+75     0     1174.0000      934.1200     1806   20.43%
      0     0      934.1714    68     1174.0000      Cuts: 21     1831   20.43%
      0     0      934.1714    71     1174.0000      Cuts: 34     1864   20.43%
Detecting symmetries...
      0     0      934.1714    70     1174.0000      Cuts: 11     1872   20.43%
*     0+    0                         1167.0000      934.1714            19.95%
Detecting symmetries...
      0     2      934.1714    69     1167.0000      934.1714     1872   19.95%
Elapsed time = 2.41 sec. (2312.20 ticks, tree = 0.02 MB, solutions = 6)
     61    55      940.5017    98     1167.0000      935.4170     7521   19.84%
    165   142      940.1333    68     1167.0000      935.4175    18595   19.84%
*   269+  211                         1054.0000      935.4175            11.25%
    323   260      978.7213   100     1054.0000      935.4175    27066   11.25%
*   324   267      integral     0      972.0000      935.4175    27660    3.76%
    509   299      940.5645    42      972.0000      935.4175    35942    3.76%
    735   516      962.3645    29      972.0000      935.4175    55374    3.76%
   1100   658      947.6874    88      972.0000      937.1433    67026    3.59%
   1493   972      949.3643    26      972.0000      938.2656    75896    3.47%
   1944  1413      951.9320    57      972.0000      938.8670    90615    3.41%
*  2074  1351      integral     0      971.0000      938.8670    90222    3.31%
   3457  2551      963.2917   100      971.0000      940.6104   149540    3.13%
Elapsed time = 7.06 sec. (5255.86 ticks, tree = 10.38 MB, solutions = 9)

Performing restart 1

Repeating presolve.
Tried aggregator 2 times.
MIP Presolve eliminated 4733 rows and 5010 columns.
MIP Presolve added 6 rows and 0 columns.
MIP Presolve modified 467 coefficients.
Aggregator did 4 substitutions.
Reduced MIP has 1121 rows, 3045 columns, and 11114 nonzeros.
Reduced MIP has 2971 binaries, 0 generals, 0 SOSs, and 0 indicators.
Presolve time = 0.01 sec. (15.94 ticks)
Tried aggregator 1 time.
MIP Presolve modified 618 coefficients.
Reduced MIP has 1121 rows, 3045 columns, and 11114 nonzeros.
Reduced MIP has 2971 binaries, 0 generals, 0 SOSs, and 0 indicators.
Presolve time = 0.01 sec. (7.03 ticks)
Represolve time = 0.04 sec. (51.60 ticks)
   4065     0      938.2000    59      971.0000     Cuts: 133   177591    3.06%
   4065     0      939.3831   152      971.0000      Cuts: 76   177764    3.06%
   4065     0      939.8264   149      971.0000     Cuts: 119   177972    3.06%
   4065     0      940.0430   140      971.0000      Cuts: 43   178046    3.06%
   4065     0      940.0463   141      971.0000      Cuts: 84   178077    3.06%
   4065     0      940.2179   143      971.0000      Cuts: 27   178111    3.06%
   4065     0      940.4606   147      971.0000     Cuts: 152   178235    3.06%
   4065     0      940.6609   131      971.0000      Cuts: 63   178326    3.06%
   4065     0      940.8214   136      971.0000      Cuts: 90   178387    3.06%
   4065     0      940.8282   139      971.0000      Cuts: 59   178456    3.06%
   4065     0      940.8735   147      971.0000      Cuts: 36   178527    3.06%
   4065     0      940.8735   145      971.0000      Cuts: 83   178574    3.06%
   4065     0      940.8735   146      971.0000      Cuts: 19   178603    3.06%
   4065     2      940.8735   143      971.0000      943.9600   178603    2.78%
*  4069+    1                          964.0000      943.9600             2.08%
   4553   199      956.6369    26      964.0000      943.9600   194167    2.08%
*  4617   294      integral     0      962.0000      943.9600   201176    1.88%
   7730  2322      955.0182    69      962.0000      945.2766   283901    1.74%
* 10447  3346      integral     0      953.0000      948.7808   352908    0.44%

GUB cover cuts applied:  4
Clique cuts applied:  21
Cover cuts applied:  46
Implied bound cuts applied:  6
Flow cuts applied:  5
Mixed integer rounding cuts applied:  122
Zero-half cuts applied:  18
Multi commodity flow cuts applied:  1
Lift and project cuts applied:  7
Gomory fractional cuts applied:  13

Root node processing (before b&c):
  Real time             =    2.39 sec. (2298.21 ticks)
Parallel b&c, 12 threads:
  Real time             =   10.82 sec. (8428.30 ticks)
  Sync time (average)   =    1.73 sec.
  Wait time (average)   =    0.01 sec.
                          ------------
Total (root+branch&cut) =   13.21 sec. (10726.51 ticks)
